NAME : data_12_13_tsptw.tsptw.8208.tour
COMMENT : Length = 8208
COMMENT : Found by LKH [Keld Helsgaun] Wed Feb  5 14:10:29 2020
TYPE : TOUR
DIMENSION : 13
TOUR_SECTION
1
8
4
6
9
3
13
2
11
12
10
5
7
-1
EOF
